NAME : P-n55-k8.412552.tour
COMMENT : Length = 412552
COMMENT : Found by LKH [Keld Helsgaun] Sun Dec 17 22:36:55 2017
TYPE : TOUR
DIMENSION : 62
TOUR_SECTION
1
5
46
30
6
16
21
38
37
60
35
47
53
28
14
55
20
15
59
57
18
52
17
4
45
33
51
19
26
56
8
9
36
54
12
39
11
62
3
31
49
48
22
29
23
61
27
13
41
10
40
32
58
7
34
2
44
43
42
24
50
25
-1
EOF
